Results/Experiment 1 Results/Existing Benchmark/RES_40/i-40-50-17.txt
solutions: 2 nodes: 4  modelTime: 158  solveTime: 17  totalTime: 180  modelSize: 7362  readTime: 5 matchingSize: 20
