Results/Experiment 2 Results/Existing Benchmark/i-40-50-17.lp
clingo version 5.4.0
Reading from tempSRTISolver.lp ...
Solving...
Answer: 1
matched(8,1) matched(39,2) matched(32,3) matched(34,4) matched(35,5) matched(20,6) matched(26,7) matched(1,8) matched(11,9) matched(16,10) matched(9,11) matched(40,12) matched(29,13) matched(30,14) matched(28,15) matched(10,16) matched(36,17) matched(19,18) matched(18,19) matched(6,20) matched(38,21) matched(24,22) matched(25,23) matched(22,24) matched(23,25) matched(7,26) matched(37,27) matched(15,28) matched(13,29) matched(14,30) matched(33,31) matched(3,32) matched(31,33) matched(4,34) matched(5,35) matched(17,36) matched(27,37) matched(21,38) matched(2,39) matched(12,40)
Optimization: 164
Answer: 2
matched(8,1) matched(39,2) matched(32,3) matched(34,4) matched(35,5) matched(20,6) matched(26,7) matched(1,8) matched(11,9) matched(16,10) matched(9,11) matched(40,12) matched(29,13) matched(30,14) matched(17,15) matched(10,16) matched(15,17) matched(19,18) matched(18,19) matched(6,20) matched(38,21) matched(24,22) matched(25,23) matched(22,24) matched(23,25) matched(7,26) matched(37,27) matched(36,28) matched(13,29) matched(14,30) matched(33,31) matched(3,32) matched(31,33) matched(4,34) matched(5,35) matched(28,36) matched(27,37) matched(21,38) matched(2,39) matched(12,40)
Optimization: 152
OPTIMUM FOUND

Models       : 2
  Optimum    : yes
Optimization : 152
Calls        : 1
Time         : 0.140s (Solving: 0.01s 1st Model: 0.00s Unsat: 0.01s)
CPU Time     : 0.140s
